solution status: optimal solution found
objective value:                     147910.499999987
d11(0,0)                                            1 	(obj:0)
d11(1,1)                                            1 	(obj:0)
d11(1,2)                                            1 	(obj:0)
d11(2,4)                                            1 	(obj:0)
d11(2,5)                                            1 	(obj:0)
d11(2,6)                                            1 	(obj:0)
d11(2,7)                                            1 	(obj:0)
d11(2,8)                                            1 	(obj:0)
d11(2,9)                                            1 	(obj:0)
d11(2,10)                                           1 	(obj:0)
d11(2,11)                                           1 	(obj:0)
d11(2,12)                                           1 	(obj:0)
d11(3,13)                                           1 	(obj:0)
d11(3,14)                                           1 	(obj:0)
d11(3,16)                                           1 	(obj:0)
d11(3,17)                                           1 	(obj:0)
d11(3,19)                                           1 	(obj:0)
d11(3,20)                                           1 	(obj:0)
d11(3,22)                                           1 	(obj:0)
d11(3,23)                                           1 	(obj:0)
d11(3,25)                                           1 	(obj:0)
d11(3,26)                                           1 	(obj:0)
d11(3,28)                                           1 	(obj:0)
d11(3,29)                                           1 	(obj:0)
d11(3,31)                                           1 	(obj:0)
d11(3,32)                                           1 	(obj:0)
d11(3,34)                                           1 	(obj:0)
d11(3,35)                                           1 	(obj:0)
d11(3,37)                                           1 	(obj:0)
d11(3,38)                                           1 	(obj:0)
d12(3,15)                                           1 	(obj:0)
d12(3,24)                                           1 	(obj:0)
d12(3,33)                                           1 	(obj:0)
d12(3,36)                                           1 	(obj:0)
d12(3,39)                                           1 	(obj:0)
d21(2,4)                                            1 	(obj:0)
d21(3,13)                                           1 	(obj:0)
d21(3,14)                                           1 	(obj:0)
d21(3,15)                                           1 	(obj:0)
d21(3,16)                                           1 	(obj:0)
d21(3,17)                                           1 	(obj:0)
d21(3,19)                                           1 	(obj:0)
d21(3,22)                                           1 	(obj:0)
d21(3,23)                                           1 	(obj:0)
d21(3,25)                                           1 	(obj:0)
d21(3,31)                                           1 	(obj:0)
STE(1,1)                             8120.76436339868 	(obj:0)
STE(0,0)                                        11025 	(obj:0)
STE(1,2)                             9117.53036673197 	(obj:0)
STE(1,3)                                        10143 	(obj:0)
STE(2,4)                             3221.43762660143 	(obj:0)
STE(2,5)                             4218.20362993472 	(obj:0)
STE(2,6)                              5435.6558332681 	(obj:0)
STE(2,7)                             4218.20362993472 	(obj:0)
STE(2,8)                             5214.96963326801 	(obj:0)
STE(2,9)                             6432.42183660139 	(obj:0)
STE(2,10)                            5243.67326320275 	(obj:0)
STE(2,11)                            6240.43926653604 	(obj:0)
STE(2,12)                            7457.89146986942 	(obj:0)
STE(3,13)                            317.201990000128 	(obj:0)
STE(3,14)                            1313.96799333342 	(obj:0)
STE(3,15)                            2339.43762660143 	(obj:0)
STE(3,16)                            1313.96799333342 	(obj:0)
STE(3,17)                            2310.73399666671 	(obj:0)
STE(3,18)                            3336.20362993472 	(obj:0)
STE(3,19)                             2531.4201966668 	(obj:0)
STE(3,20)                            3528.18620000009 	(obj:0)
STE(3,21)                             4553.6558332681 	(obj:0)
STE(3,22)                            1313.96799333342 	(obj:0)
STE(3,23)                            2310.73399666671 	(obj:0)
STE(3,24)                            3336.20362993472 	(obj:0)
STE(3,25)                            2310.73399666671 	(obj:0)
STE(3,26)                                      3307.5 	(obj:0)
STE(3,27)                            4332.96963326801 	(obj:0)
STE(3,28)                            3528.18620000009 	(obj:0)
STE(3,29)                            4524.95220333338 	(obj:0)
STE(3,30)                            5550.42183660139 	(obj:0)
STE(3,31)                            2339.43762660145 	(obj:0)
STE(3,32)                            3336.20362993474 	(obj:0)
STE(3,33)                            4361.67326320275 	(obj:0)
STE(3,34)                            3336.20362993474 	(obj:0)
STE(3,35)                            4332.96963326803 	(obj:0)
STE(3,36)                            5358.43926653604 	(obj:0)
STE(3,37)                            4553.65583326812 	(obj:0)
STE(3,38)                            5550.42183660141 	(obj:0)
STE(3,39)                            6575.89146986942 	(obj:0)
y1(3,23)                              922.92266994121 	(obj:0)
y1(3,25)                             1820.01207294117 	(obj:0)
y1(3,26)                              922.92266994121 	(obj:0)
y1(3,28)                             1820.01207294117 	(obj:0)
y1(3,29)                              922.92266994121 	(obj:0)
y1(3,31)                             1820.01207294117 	(obj:0)
y1(3,32)                              922.92266994121 	(obj:0)
y1(3,34)                             1820.01207294117 	(obj:0)
y1(3,35)                              922.92266994121 	(obj:0)
y1(3,37)                             1820.01207294117 	(obj:0)
y1(3,38)                              922.92266994121 	(obj:0)
BG(3)                                4319.60782647058 	(obj:10)
AVE(1)                               3199.95851117552 	(obj:0)
AVE(2)                               3265.15049132519 	(obj:0)
WB(3)                                3291.35535332476 	(obj:0)
AVE(3)                               3291.35535332476 	(obj:0)
WG(1)                                3199.95851117552 	(obj:10)
WG(2)                                3265.15049132519 	(obj:10)
BG(1)                                1119.64931529507 	(obj:10)
BG(2)                                2886.68385573349 	(obj:10)
y1(1,1)                              1820.01207294119 	(obj:0)
y1(1,2)                              922.922669941229 	(obj:0)
y1(2,4)                              3615.59406311752 	(obj:0)
y1(2,5)                              2718.50466011756 	(obj:0)
y1(2,6)                              1622.79767711752 	(obj:0)
y1(2,7)                              3615.59406311752 	(obj:0)
y1(2,8)                              2718.50466011756 	(obj:0)
y1(2,9)                              1622.79767711752 	(obj:0)
y1(2,10)                             3615.59406311752 	(obj:0)
y1(2,11)                             2718.50466011756 	(obj:0)
y1(2,12)                             1622.79767711752 	(obj:0)
y1(3,13)                             1820.01207294117 	(obj:0)
y1(3,14)                              922.92266994121 	(obj:0)
y1(3,16)                             1820.01207294117 	(obj:0)
y1(3,17)                              922.92266994121 	(obj:0)
y1(3,19)                             1820.01207294117 	(obj:0)
y1(3,20)                              922.92266994121 	(obj:0)
y1(3,22)                             1820.01207294117 	(obj:0)
